Route #1: 37 100 91 44 14 38 86 16 61 17 84 5 60 89
Route #2: 6 96 99 59 93 85 98 92 97 95 94
Route #3: 53 58 40 21 73 74 22 41 2 57 15 43 42 87 13
Route #4: 26 54 4 55 25 39 67 23 56 75 72
Route #5: 12 68 80 24 29 78 34 35 71 65 66 20 30 70
Route #6: 28 76 77 3 79 33 81 9 51 50 1 69 27
Route #7: 52 7 82 48 19 11 62 88
Route #8: 18 83 45 8 46 47 36 49 64 63 90 32 10 31
Cost 820
Time 0.232908
